\* column_knapsack_problem *\
Minimize
knapsack: 25 col_10 + 25 col_11 + 25 col_13 + 26 col_14 + 25 col_17
 + 27 col_18 + 24 col_20 + 24 col_21 + 26 col_22 + 25 col_25 + 25 col_3
 + 25 col_30 + 26 col_35 + 24 col_36 + 26 col_39 + 25 col_4 + 25 col_43
 + 25 col_46 + 26 col_47 + 26 col_49 + 26 col_6 + 25 col_7 + 25 col_8
Subject To
sensitivity: 5 col_10 + 5 col_11 + 5 col_13 + 4 col_14 + 5 col_17 + 3 col_18
 + 6 col_20 + 6 col_21 + 4 col_22 + 5 col_25 + 5 col_3 + 5 col_30 + 4 col_35
 + 6 col_36 + 4 col_39 + 5 col_4 + 5 col_43 + 5 col_46 + 4 col_47 + 4 col_49
 + 4 col_6 + 5 col_7 + 5 col_8 >= 10.9
Bounds
 col_10 <= 1
 col_11 <= 1
 col_13 <= 1
 col_14 <= 1
 col_17 <= 1
 col_18 <= 1
 col_20 <= 1
 col_21 <= 1
 col_22 <= 1
 col_25 <= 1
 col_3 <= 1
 col_30 <= 1
 col_35 <= 1
 col_36 <= 1
 col_39 <= 1
 col_4 <= 1
 col_43 <= 1
 col_46 <= 1
 col_47 <= 1
 col_49 <= 1
 col_6 <= 1
 col_7 <= 1
 col_8 <= 1
End
